c 
c MolecularSimulation 0.9.3
c Simulation written: Jan 13 2012 -- 15:17:57
c Test: Ogihara-Ray
c Input: ./data/testCNF/SWEEP_R12_K3_N20_M224_S000.cnf
c 
s UNSATISFIABLE
v 0
c algorithmTime:  0
c solutionMemory: 0
c mixCount:       72
c extractCount:   1120
c appendCount:    36
c splitCount:     18
c spliceCount:    0
c purifyCount:    242
c 
